ICHARG = 2
GGA = PE
ISPIN = 2
ALGO = Fast
ISMEAR = 0
SIGMA = 0.05
ENCUT = 250.0
PREC = Accurate
LREAL = .FALSE.
LASPH = .TRUE.
ADDGRID = .TRUE.
EDIFF = 1e-05
NELM = 200
NELMIN = 3
ISIF = 3
IBRION = 2
EDIFFG = 0.005
NSW = 300
NCORE = 10
LWAVE = .FALSE.
LCHARG = .FALSE.
MAGMOM = 1*4 2*0
