SCEL1_1_1_1_0_0_0/0
1.0
2.83713976 0.00000000 0.00000000
-1.41856988 2.45703510 0.00000000
0.00000000 0.00000000 23.15470209
   Mo   S
   1   2
Direct
0.33333330    0.66666670    0.50000000    Mo
0.66666670    0.33333330    0.43269080    S
0.66666670    0.33333330    0.56730920    S
